Version identifier: 12.10.0.0 | 2019-11-26 | 843d4de
CPXPARAM_WorkMem                                 28672
Tried aggregator 2 times.
Aggregator did 30 substitutions.
Reduced MIP has 103 rows, 120 columns, and 498 nonzeros.
Reduced MIP has 120 binaries, 0 generals, 0 SOSs, and 0 indicators.
Presolve time = 0,00 sec. (0,47 ticks)
Found incumbent of value 2013,000000 after 0,00 sec. (0,80 ticks)
Probing time = 0,00 sec. (0,18 ticks)
Tried aggregator 1 time.
Detecting symmetries...
MIP Presolve eliminated 12 rows and 0 columns.
MIP Presolve added 24 rows and 0 columns.
Reduced MIP has 115 rows, 120 columns, and 510 nonzeros.
Reduced MIP has 120 binaries, 0 generals, 0 SOSs, and 0 indicators.
Presolve time = 0,00 sec. (0,54 ticks)
Probing time = 0,00 sec. (0,18 ticks)
Clique table members: 358.
MIP emphasis: balance optimality and feasibility.
MIP search method: dynamic search.
Parallel mode: deterministic, using up to 16 threads.
Root relaxation solution time = 0,00 sec. (0,24 ticks)

        Nodes                                         Cuts/
   Node  Left     Objective  IInf  Best Integer    Best Bound    ItCnt     Gap

*     0+    0                         2013,0000        0,0000           100,00%
*     0+    0                         1619,0000        0,0000           100,00%
*     0+    0                         1576,0000        0,0000           100,00%
*     0+    0                         1462,0000        0,0000           100,00%
      0     0      671,0000    76     1462,0000      671,0000       30   54,10%
      0     0      671,0000    76     1462,0000     Cuts: 128       67   54,10%
      0     0      671,0000    76     1462,0000     Cuts: 129       91   54,10%
*     0+    0                         1331,0000      671,0000            49,59%
Detecting symmetries...
      0     2      671,0000    92     1331,0000      825,6583       91   37,97%
Elapsed time = 0,06 sec. (13,41 ticks, tree = 0,02 MB, solutions = 5)

Clique cuts applied:  30
Cover cuts applied:  136
Implied bound cuts applied:  6
Mixed integer rounding cuts applied:  3
Zero-half cuts applied:  3

Root node processing (before b&c):
  Real time             =    0,05 sec. (13,34 ticks)
Parallel b&c, 16 threads:
  Real time             =    0,09 sec. (14,89 ticks)
  Sync time (average)   =    0,07 sec.
  Wait time (average)   =    0,00 sec.
                          ------------
Total (root+branch&cut) =    0,14 sec. (28,23 ticks)
